p cnf 13 31
-13 -12 10 0
13 10 -8 0
13 -9 -7 0
13 -9 -5 0
-13 -8 -7 0
13 8 -7 0
-13 8 -5 0
13 8 -1 0
13 -7 4 0
-13 6 -4 0
13 4 -1 0
-13 -3 1 0
-12 11 10 0
-12 -10 -7 0
-12 -8 -6 0
-12 -7 6 0
-12 5 -3 0
11 10 8 0
-11 -7 6 0
10 -9 6 0
10 6 4 0
10 -4 1 0
-9 7 -4 0
9 6 3 0
9 -6 -1 0
9 -5 1 0
8 -6 -4 0
-8 -5 3 0
7 -6 4 0
-7 6 3 0
-7 4 2 0
